NAME : tsp30_17.150.tour
COMMENT : Length = 150
COMMENT : Found by LKH [Keld Helsgaun]
TYPE : TOUR
DIMENSION : 30
TOUR_SECTION
1
3
16
22
4
27
7
29
28
5
10
18
8
9
23
17
14
26
2
11
15
19
30
24
21
6
13
20
25
12
-1
EOF
